1295016
82,2,62,19,43,84,60,42,31,94,5,29,78,66,3,102,55,91,73,47,20,79,16,52,14,22,63,21,57,103,96,88,90,10,48,30,38,13,46,70,101,53,99,104,98,41,59,105,77,32,107,12,95,92,86,61,18,72,75,49,17,6,87,64,35,27,11,54,39,67,7,69,68,26,85,74,56,71,25,40,37,36,8,76,65,9,108,23,89,44,81,100,97,34,4,0,33,51,28,45,58,83,50,1,80,93,106,15,24
